WARNING: for repeatability, setting FPU to use double precision
============================[ Problem Statistics ]=============================
|                                                                             |
|  Number of variables:         37869                                         |
|  Number of clauses:           77137                                         |
|  Parse time:                   0.02 s                                       |
|                                                                             |
c ============================[ Search Statistics ]==============================
c | Conflicts |          ORIGINAL         |          LEARNT          | Progress |
c |           |    Vars  Clauses Literals |    Limit  Clauses Lit/Cl |          |
c ===============================================================================
We had 219 decisions of which only 0 were on extended
We had 868849 decisions of which only 0 were on extended
c Switched to VSIDS.
We had 2223095 decisions of which only 0.00103459 were on extended
We had 4597374 decisions of which only 0.00435031 were on extended
c Switched to LRB.
We had 6362411 decisions of which only 0.00528102 were on extended
We had 7166749 decisions of which only 0.00608365 were on extended
c Switched to VSIDS.
We had 7180132 decisions of which only 0.00608624 were on extended
We had 7193348 decisions of which only 0.00607506 were on extended
We had 7205228 decisions of which only 0.00606504 were on extended
We had 7217113 decisions of which only 0.00606891 were on extended
We had 7228969 decisions of which only 0.00605896 were on extended
We had 7240778 decisions of which only 0.00604907 were on extended
We had 7252274 decisions of which only 0.00603948 were on extended
We had 7263560 decisions of which only 0.0060301 were on extended
We had 7275358 decisions of which only 0.00602032 were on extended
We had 7287279 decisions of which only 0.00601047 were on extended
We had 7298898 decisions of which only 0.00601461 were on extended
We had 7310848 decisions of which only 0.00600478 were on extended
We had 7322400 decisions of which only 0.0059953 were on extended
Window full
Continue
We had 7333754 decisions of which only 0.00598602 were on extended
c Switched to LRB.
c Switched to VSIDS.
We had 7345964 decisions of which only 0.0060033 were on extended
We had 7357420 decisions of which only 0.00599395 were on extended
c Switched to LRB.
We had 7371008 decisions of which only 0.00615927 were on extended
We had 7383204 decisions of which only 0.00614909 were on extended
c Switched to VSIDS.
We had 7394856 decisions of which only 0.0061394 were on extended
We had 7406286 decisions of which only 0.00617043 were on extended
We had 7417556 decisions of which only 0.00617454 were on extended
We had 7428749 decisions of which only 0.00616524 were on extended
We had 7440133 decisions of which only 0.0061558 were on extended
Window full
Continue
We had 7451689 decisions of which only 0.00615968 were on extended
We had 7462859 decisions of which only 0.00615046 were on extended
c Switched to LRB.
c Switched to VSIDS.
We had 7474633 decisions of which only 0.00622104 were on extended
We had 7485977 decisions of which only 0.00621161 were on extended
We had 7497884 decisions of which only 0.00620175 were on extended
c Switched to LRB.
We had 7510574 decisions of which only 0.00652414 were on extended
We had 7523523 decisions of which only 0.00653949 were on extended
c Switched to VSIDS.
We had 7536146 decisions of which only 0.00652854 were on extended
We had 7547609 decisions of which only 0.00651862 were on extended
We had 7559349 decisions of which only 0.00654818 were on extended
Window full
Continue
We had 7570665 decisions of which only 0.0065516 were on extended
We had 7581686 decisions of which only 0.00656846 were on extended
c Switched to LRB.
We had 7594356 decisions of which only 0.00667601 were on extended
We had 7606328 decisions of which only 0.0066655 were on extended
We had 7617835 decisions of which only 0.00665543 were on extended
c Switched to VSIDS.
We had 7629137 decisions of which only 0.0066849 were on extended
We had 7640951 decisions of which only 0.00670074 were on extended
We had 7652607 decisions of which only 0.00672973 were on extended
We had 7664089 decisions of which only 0.00671965 were on extended
c Switched to LRB.
We had 7676307 decisions of which only 0.00724307 were on extended
Window full
Continue
We had 7688889 decisions of which only 0.00728324 were on extended
c Switched to VSIDS.
We had 7700870 decisions of which only 0.00732385 were on extended
We had 7711789 decisions of which only 0.00733941 were on extended
We had 7723458 decisions of which only 0.00740601 were on extended
We had 7735549 decisions of which only 0.00740736 were on extended
We had 7747356 decisions of which only 0.00782202 were on extended
c Switched to LRB.
We had 7759438 decisions of which only 0.00795161 were on extended
We had 7771758 decisions of which only 0.00799047 were on extended
We had 7782991 decisions of which only 0.00803033 were on extended
We had 7795265 decisions of which only 0.00817163 were on extended
Window full
Continue
We had 7807274 decisions of which only 0.00833838 were on extended
c Switched to VSIDS.
We had 7819129 decisions of which only 0.00850478 were on extended
We had 7830614 decisions of which only 0.00860724 were on extended
We had 7842481 decisions of which only 0.00867073 were on extended
We had 7854344 decisions of which only 0.00874675 were on extended
We had 7865834 decisions of which only 0.0087594 were on extended
We had 7876788 decisions of which only 0.00874722 were on extended
We had 7888082 decisions of which only 0.00893753 were on extended
We had 7899793 decisions of which only 0.00925341 were on extended
We had 7910784 decisions of which only 0.00949337 were on extended
Window full
Continue
We had 7922538 decisions of which only 0.00958026 were on extended
c Switched to LRB.
We had 7934630 decisions of which only 0.010284 were on extended
We had 7947052 decisions of which only 0.0106329 were on extended
We had 7958872 decisions of which only 0.0108307 were on extended
c Switched to VSIDS.
We had 7970416 decisions of which only 0.0109154 were on extended
We had 7981904 decisions of which only 0.0109748 were on extended
We had 7993270 decisions of which only 0.0110843 were on extended
We had 8005069 decisions of which only 0.011093 were on extended
We had 8016511 decisions of which only 0.0112518 were on extended
We had 8028375 decisions of which only 0.011285 were on extended
c Switched to LRB.
Window full
Continue
We had 8040248 decisions of which only 0.0117534 were on extended
We had 8051053 decisions of which only 0.01175 were on extended
We had 8062014 decisions of which only 0.0117588 were on extended
We had 8073265 decisions of which only 0.0118044 were on extended
We had 8085178 decisions of which only 0.0118736 were on extended
We had 8097193 decisions of which only 0.0119301 were on extended
c Switched to VSIDS.
We had 8109063 decisions of which only 0.0122579 were on extended
We had 8120305 decisions of which only 0.0123641 were on extended
We had 8131805 decisions of which only 0.0124819 were on extended
We had 8142882 decisions of which only 0.0130666 were on extended
Window full
Continue
We had 8154006 decisions of which only 0.0135026 were on extended
We had 8165174 decisions of which only 0.0139617 were on extended
We had 8176284 decisions of which only 0.0139428 were on extended
We had 8187153 decisions of which only 0.0139243 were on extended
We had 8197938 decisions of which only 0.0139059 were on extended
c Switched to LRB.
We had 8209404 decisions of which only 0.0142763 were on extended
We had 8221681 decisions of which only 0.0144009 were on extended
We had 8232931 decisions of which only 0.0144541 were on extended
We had 8244988 decisions of which only 0.0146028 were on extended
We had 8256718 decisions of which only 0.0146184 were on extended
Window full
Continue
We had 8268212 decisions of which only 0.0147069 were on extended
We had 8279764 decisions of which only 0.0147347 were on extended
We had 8290572 decisions of which only 0.0147517 were on extended
We had 8301344 decisions of which only 0.0147446 were on extended
c Switched to VSIDS.
We had 8312630 decisions of which only 0.015699 were on extended
We had 8324183 decisions of which only 0.0166983 were on extended
We had 8335882 decisions of which only 0.0170588 were on extended
We had 8347595 decisions of which only 0.0174182 were on extended
We had 8359080 decisions of which only 0.0179326 were on extended
We had 8370490 decisions of which only 0.0180037 were on extended
Window full
Continue
We had 8382368 decisions of which only 0.0184435 were on extended
c Switched to LRB.
We had 8394761 decisions of which only 0.0189999 were on extended
We had 8406547 decisions of which only 0.019009 were on extended
We had 8418239 decisions of which only 0.0191133 were on extended
We had 8430091 decisions of which only 0.0194778 were on extended
We had 8441145 decisions of which only 0.019476 were on extended
We had 8453332 decisions of which only 0.0198738 were on extended
We had 8464848 decisions of which only 0.0204375 were on extended
We had 8476583 decisions of which only 0.0206569 were on extended
We had 8487798 decisions of which only 0.0210773 were on extended
Window full
Continue
We had 8498989 decisions of which only 0.0218261 were on extended
c Switched to VSIDS.
We had 8510132 decisions of which only 0.0218445 were on extended
We had 8522161 decisions of which only 0.022682 were on extended
We had 8533825 decisions of which only 0.0234947 were on extended
We had 8545327 decisions of which only 0.0237557 were on extended
We had 8556873 decisions of which only 0.0238171 were on extended
We had 8568476 decisions of which only 0.0243801 were on extended
We had 8580646 decisions of which only 0.0249165 were on extended
We had 8592704 decisions of which only 0.0255449 were on extended
We had 8604615 decisions of which only 0.025649 were on extended
c Switched to LRB.
Window full
Continue
We had 8616264 decisions of which only 0.0265776 were on extended
We had 8627216 decisions of which only 0.0277726 were on extended
We had 8638409 decisions of which only 0.0296698 were on extended
We had 8649535 decisions of which only 0.0316086 were on extended
We had 8660570 decisions of which only 0.0343395 were on extended
We had 8671799 decisions of which only 0.035898 were on extended
We had 8682728 decisions of which only 0.0388127 were on extended
We had 8693819 decisions of which only 0.0419839 were on extended
We had 8705450 decisions of which only 0.0467983 were on extended
We had 8717053 decisions of which only 0.0530569 were on extended
Window full
Continue
We had 8728865 decisions of which only 0.0570063 were on extended
c Switched to VSIDS.
We had 8740020 decisions of which only 0.0589244 were on extended
We had 8751722 decisions of which only 0.0592112 were on extended
We had 8762752 decisions of which only 0.0593535 were on extended
We had 8774547 decisions of which only 0.0609604 were on extended
We had 8786138 decisions of which only 0.0617678 were on extended
We had 8797737 decisions of which only 0.0631526 were on extended
We had 8809146 decisions of which only 0.064013 were on extended
We had 8821514 decisions of which only 0.0643994 were on extended
We had 8833575 decisions of which only 0.0651831 were on extended
Window full
Continue
We had 8845220 decisions of which only 0.0666122 were on extended
We had 8856852 decisions of which only 0.0674506 were on extended
We had 8867960 decisions of which only 0.0682344 were on extended
We had 8879310 decisions of which only 0.0699604 were on extended
We had 8890383 decisions of which only 0.0727753 were on extended
c Switched to LRB.
We had 8902553 decisions of which only 0.0759894 were on extended
We had 8913790 decisions of which only 0.0767911 were on extended
We had 8925417 decisions of which only 0.0780468 were on extended
We had 8936959 decisions of which only 0.0808441 were on extended
We had 8949014 decisions of which only 0.0854172 were on extended
Window full
Continue
We had 8960492 decisions of which only 0.0869149 were on extended
We had 8971737 decisions of which only 0.0908408 were on extended
We had 8982844 decisions of which only 0.0949922 were on extended
We had 8994627 decisions of which only 0.0999152 were on extended
We had 9006260 decisions of which only 0.103917 were on extended
We had 9017843 decisions of which only 0.108352 were on extended
We had 9028993 decisions of which only 0.11133 were on extended
c Switched to VSIDS.
We had 9040581 decisions of which only 0.112581 were on extended
We had 9053235 decisions of which only 0.113263 were on extended
We had 9065050 decisions of which only 0.115135 were on extended
Window full
Continue
We had 9076298 decisions of which only 0.116622 were on extended
We had 9087625 decisions of which only 0.118403 were on extended
We had 9099368 decisions of which only 0.119778 were on extended
We had 9110951 decisions of which only 0.121908 were on extended
We had 9122143 decisions of which only 0.122219 were on extended
We had 9133353 decisions of which only 0.1222 were on extended
We had 9144863 decisions of which only 0.124431 were on extended
We had 9156628 decisions of which only 0.126411 were on extended
We had 9168316 decisions of which only 0.127504 were on extended
We had 9180218 decisions of which only 0.130792 were on extended
Window full
Continue
We had 9192228 decisions of which only 0.131785 were on extended
We had 9203336 decisions of which only 0.133321 were on extended
We had 9215573 decisions of which only 0.134631 were on extended
c Switched to LRB.
We had 9227629 decisions of which only 0.140209 were on extended
We had 9239281 decisions of which only 0.144102 were on extended
We had 9251125 decisions of which only 0.151106 were on extended
We had 9262407 decisions of which only 0.156709 were on extended
We had 9273248 decisions of which only 0.162209 were on extended
We had 9284072 decisions of which only 0.167868 were on extended
We had 9294874 decisions of which only 0.174128 were on extended
Window full
Continue
We had 9305715 decisions of which only 0.182071 were on extended
We had 9317112 decisions of which only 0.185787 were on extended
We had 9328540 decisions of which only 0.190319 were on extended
We had 9340441 decisions of which only 0.199284 were on extended
We had 9351914 decisions of which only 0.207647 were on extended
We had 9363098 decisions of which only 0.214224 were on extended
We had 9374838 decisions of which only 0.221529 were on extended
We had 9386267 decisions of which only 0.229857 were on extended
c Switched to VSIDS.
We had 9397573 decisions of which only 0.235784 were on extended
We had 9408938 decisions of which only 0.236052 were on extended
Window full
Continue
We had 9421057 decisions of which only 0.237373 were on extended
We had 9432973 decisions of which only 0.238525 were on extended
We had 9445038 decisions of which only 0.242085 were on extended
We had 9456536 decisions of which only 0.246623 were on extended
We had 9468347 decisions of which only 0.250709 were on extended
We had 9479407 decisions of which only 0.250543 were on extended
We had 9490962 decisions of which only 0.252419 were on extended
We had 9502631 decisions of which only 0.254487 were on extended
We had 9514574 decisions of which only 0.256207 were on extended
We had 9525990 decisions of which only 0.259301 were on extended
Window full
Continue
We had 9537152 decisions of which only 0.264125 were on extended
We had 9548649 decisions of which only 0.270373 were on extended
We had 9560738 decisions of which only 0.274696 were on extended
We had 9572755 decisions of which only 0.276336 were on extended
We had 9585197 decisions of which only 0.279097 were on extended
We had 9596921 decisions of which only 0.282132 were on extended
c Switched to LRB.
We had 9609076 decisions of which only 0.289809 were on extended
We had 9620314 decisions of which only 0.296809 were on extended
We had 9631318 decisions of which only 0.303884 were on extended
We had 9642703 decisions of which only 0.309768 were on extended
Window full
Continue
We had 9654600 decisions of which only 0.321816 were on extended
We had 9666247 decisions of which only 0.332187 were on extended
We had 9678162 decisions of which only 0.342989 were on extended
We had 9689070 decisions of which only 0.353099 were on extended
We had 9700669 decisions of which only 0.363418 were on extended
We had 9711894 decisions of which only 0.377105 were on extended
We had 9723433 decisions of which only 0.393225 were on extended
We had 9735358 decisions of which only 0.406929 were on extended
We had 9746775 decisions of which only 0.419175 were on extended
We had 9758368 decisions of which only 0.429283 were on extended
Window full
Continue
We had 9769519 decisions of which only 0.444577 were on extended
We had 9780451 decisions of which only 0.460643 were on extended
We had 9791326 decisions of which only 0.474716 were on extended
We had 9802557 decisions of which only 0.488607 were on extended
We had 9813921 decisions of which only 0.504437 were on extended
We had 9825059 decisions of which only 0.516506 were on extended
We had 9836168 decisions of which only 0.530725 were on extended
We had 9847268 decisions of which only 0.545359 were on extended
We had 9858155 decisions of which only 0.561413 were on extended
We had 9869332 decisions of which only 0.58088 were on extended
Window full
Continue
We had 9880358 decisions of which only 0.597286 were on extended
We had 9891399 decisions of which only 0.614908 were on extended
We had 9902409 decisions of which only 0.631614 were on extended
We had 9913574 decisions of which only 0.646376 were on extended
We had 9924458 decisions of which only 0.661729 were on extended
We had 9935347 decisions of which only 0.679644 were on extended
We had 9946274 decisions of which only 0.700262 were on extended
c Switched to VSIDS.
We had 9957499 decisions of which only 0.71519 were on extended
We had 9969014 decisions of which only 0.722168 were on extended
We had 9980782 decisions of which only 0.726346 were on extended
Window full
Continue
We had 9992594 decisions of which only 0.731812 were on extended
We had 10004238 decisions of which only 0.742215 were on extended
We had 10015906 decisions of which only 0.748619 were on extended
We had 10027616 decisions of which only 0.755793 were on extended
We had 10039584 decisions of which only 0.767243 were on extended
We had 10051044 decisions of which only 0.772795 were on extended
We had 10063088 decisions of which only 0.78141 were on extended
We had 10074827 decisions of which only 0.782564 were on extended
We had 10086079 decisions of which only 0.789038 were on extended
c Switched to LRB.
We had 10097385 decisions of which only 0.794097 were on extended
Window full
Continue
We had 10109221 decisions of which only 0.807807 were on extended
We had 10120686 decisions of which only 0.823936 were on extended
We had 10132352 decisions of which only 0.843151 were on extended
We had 10143493 decisions of which only 0.856372 were on extended
We had 10154982 decisions of which only 0.874349 were on extended
We had 10166466 decisions of which only 0.896693 were on extended
We had 10178067 decisions of which only 0.919094 were on extended
We had 10189632 decisions of which only 0.943842 were on extended
We had 10200564 decisions of which only 0.966447 were on extended
We had 10211440 decisions of which only 0.990409 were on extended
Window full
Continue
We had 10223074 decisions of which only 1.01459 were on extended
We had 10234247 decisions of which only 1.03687 were on extended
We had 10246202 decisions of which only 1.06438 were on extended
We had 10257205 decisions of which only 1.08984 were on extended
We had 10268527 decisions of which only 1.11675 were on extended
We had 10280227 decisions of which only 1.13755 were on extended
We had 10291578 decisions of which only 1.15923 were on extended
We had 10303024 decisions of which only 1.18798 were on extended
We had 10313744 decisions of which only 1.21196 were on extended
We had 10324544 decisions of which only 1.23234 were on extended
Window full
Continue
We had 10335383 decisions of which only 1.2586 were on extended
We had 10346071 decisions of which only 1.27906 were on extended
c Switched to VSIDS.
We had 10357186 decisions of which only 1.30503 were on extended
We had 10368916 decisions of which only 1.31719 were on extended
We had 10380544 decisions of which only 1.32463 were on extended
We had 10392114 decisions of which only 1.33621 were on extended
We had 10403423 decisions of which only 1.34399 were on extended
We had 10415339 decisions of which only 1.35131 were on extended
We had 10426773 decisions of which only 1.363 were on extended
We had 10438033 decisions of which only 1.37008 were on extended
Window full
Continue
We had 10449786 decisions of which only 1.37699 were on extended
We had 10461529 decisions of which only 1.38401 were on extended
We had 10473129 decisions of which only 1.39541 were on extended
We had 10484277 decisions of which only 1.39662 were on extended
We had 10495802 decisions of which only 1.40258 were on extended
We had 10507558 decisions of which only 1.4094 were on extended
We had 10519400 decisions of which only 1.4175 were on extended
We had 10531016 decisions of which only 1.42327 were on extended
We had 10542079 decisions of which only 1.4259 were on extended
We had 10553394 decisions of which only 1.43595 were on extended
Window full
Continue
We had 10565050 decisions of which only 1.44913 were on extended
We had 10576795 decisions of which only 1.45648 were on extended
We had 10587954 decisions of which only 1.46045 were on extended
We had 10599796 decisions of which only 1.46585 were on extended
We had 10611685 decisions of which only 1.47768 were on extended
We had 10623427 decisions of which only 1.48759 were on extended
We had 10634611 decisions of which only 1.49608 were on extended
We had 10645422 decisions of which only 1.49665 were on extended
c Switched to LRB.
We had 10657381 decisions of which only 1.50947 were on extended
We had 10669363 decisions of which only 1.53775 were on extended
Window full
Continue
We had 10680970 decisions of which only 1.56657 were on extended
We had 10693037 decisions of which only 1.59853 were on extended
We had 10704240 decisions of which only 1.6327 were on extended
We had 10715643 decisions of which only 1.67329 were on extended
We had 10727074 decisions of which only 1.71563 were on extended
We had 10738762 decisions of which only 1.74839 were on extended
We had 10750528 decisions of which only 1.78261 were on extended
We had 10761377 decisions of which only 1.81892 were on extended
We had 10772343 decisions of which only 1.8578 were on extended
We had 10783796 decisions of which only 1.8914 were on extended
Window full
Continue
We had 10795172 decisions of which only 1.93041 were on extended
We had 10806730 decisions of which only 1.96789 were on extended
We had 10818168 decisions of which only 2.00305 were on extended
We had 10829252 decisions of which only 2.03506 were on extended
We had 10840985 decisions of which only 2.07182 were on extended
We had 10852338 decisions of which only 2.10942 were on extended
We had 10864006 decisions of which only 2.14439 were on extended
We had 10874870 decisions of which only 2.18107 were on extended
We had 10885928 decisions of which only 2.21738 were on extended
We had 10896611 decisions of which only 2.25147 were on extended
Window full
Continue
We had 10907510 decisions of which only 2.29016 were on extended
We had 10918438 decisions of which only 2.32637 were on extended
We had 10929456 decisions of which only 2.36662 were on extended
We had 10940307 decisions of which only 2.40616 were on extended
We had 10951122 decisions of which only 2.44654 were on extended
We had 10962091 decisions of which only 2.48921 were on extended
We had 10973027 decisions of which only 2.5326 were on extended
c Switched to VSIDS.
We had 10984644 decisions of which only 2.54246 were on extended
We had 10995938 decisions of which only 2.54852 were on extended
We had 11007390 decisions of which only 2.55336 were on extended
Window full
Continue
We had 11019049 decisions of which only 2.57043 were on extended
We had 11030898 decisions of which only 2.58246 were on extended
We had 11042282 decisions of which only 2.59579 were on extended
We had 11053685 decisions of which only 2.60753 were on extended
We had 11064903 decisions of which only 2.61628 were on extended
We had 11076204 decisions of which only 2.62367 were on extended
We had 11087533 decisions of which only 2.62906 were on extended
We had 11098904 decisions of which only 2.63364 were on extended
We had 11110581 decisions of which only 2.64525 were on extended
We had 11122209 decisions of which only 2.65576 were on extended
Window full
Continue
We had 11133482 decisions of which only 2.66819 were on extended
We had 11145613 decisions of which only 2.67555 were on extended
We had 11157354 decisions of which only 2.6846 were on extended
We had 11169104 decisions of which only 2.69838 were on extended
We had 11181029 decisions of which only 2.71183 were on extended
We had 11192709 decisions of which only 2.7212 were on extended
We had 11204412 decisions of which only 2.73258 were on extended
We had 11214985 decisions of which only 2.73376 were on extended
We had 11226166 decisions of which only 2.74244 were on extended
We had 11238062 decisions of which only 2.76086 were on extended
Window full
Continue
We had 11249590 decisions of which only 2.77864 were on extended
We had 11261147 decisions of which only 2.78805 were on extended
We had 11272694 decisions of which only 2.79716 were on extended
We had 11284502 decisions of which only 2.81176 were on extended
We had 11296225 decisions of which only 2.83097 were on extended
We had 11307878 decisions of which only 2.84958 were on extended
We had 11318905 decisions of which only 2.8595 were on extended
We had 11330881 decisions of which only 2.87054 were on extended
c Switched to LRB.
We had 11342941 decisions of which only 2.89774 were on extended
We had 11354858 decisions of which only 2.94246 were on extended
Window full
Continue
We had 11366659 decisions of which only 2.98549 were on extended
We had 11378541 decisions of which only 3.02432 were on extended
We had 11389978 decisions of which only 3.06764 were on extended
We had 11401881 decisions of which only 3.11285 were on extended
We had 11413381 decisions of which only 3.15848 were on extended
We had 11425384 decisions of which only 3.19979 were on extended
We had 11436670 decisions of which only 3.23504 were on extended
We had 11447792 decisions of which only 3.27481 were on extended
We had 11459125 decisions of which only 3.31724 were on extended
We had 11470705 decisions of which only 3.35389 were on extended
Window full
Continue
We had 11482154 decisions of which only 3.39274 were on extended
We had 11493744 decisions of which only 3.44087 were on extended
We had 11504760 decisions of which only 3.48663 were on extended
We had 11516523 decisions of which only 3.53114 were on extended
We had 11528037 decisions of which only 3.57714 were on extended
We had 11539819 decisions of which only 3.62202 were on extended
We had 11551362 decisions of which only 3.66818 were on extended
We had 11562411 decisions of which only 3.71679 were on extended
We had 11573480 decisions of which only 3.76085 were on extended
We had 11584438 decisions of which only 3.80558 were on extended
Window full
Continue
We had 11595313 decisions of which only 3.84953 were on extended
We had 11606854 decisions of which only 3.89724 were on extended
We had 11618514 decisions of which only 3.95063 were on extended
We had 11630136 decisions of which only 4.00397 were on extended
We had 11641892 decisions of which only 4.05252 were on extended
We had 11653117 decisions of which only 4.10059 were on extended
We had 11664782 decisions of which only 4.14736 were on extended
We had 11676047 decisions of which only 4.19729 were on extended
We had 11687561 decisions of which only 4.24485 were on extended
We had 11698527 decisions of which only 4.29367 were on extended
Window full
Continue
We had 11709500 decisions of which only 4.34074 were on extended
c Switched to VSIDS.
We had 11720796 decisions of which only 4.37538 were on extended
We had 11732087 decisions of which only 4.39034 were on extended
We had 11743979 decisions of which only 4.40495 were on extended
We had 11755440 decisions of which only 4.41157 were on extended
We had 11766845 decisions of which only 4.42307 were on extended
We had 11778054 decisions of which only 4.42898 were on extended
We had 11789673 decisions of which only 4.44727 were on extended
We had 11801304 decisions of which only 4.46904 were on extended
We had 11812827 decisions of which only 4.48213 were on extended
Window full
Continue
We had 11823833 decisions of which only 4.48953 were on extended
We had 11834793 decisions of which only 4.49949 were on extended
We had 11846009 decisions of which only 4.51824 were on extended
We had 11857893 decisions of which only 4.53458 were on extended
We had 11869555 decisions of which only 4.54758 were on extended
CAREFUL: the definition is falsified in conflict 4131765 at DL 34 (has happened 1 times)
We had 11881269 decisions of which only 4.55447 were on extended
We had 11892502 decisions of which only 4.56228 were on extended
c ===============================================================================
restarts                  : 4635
conflicts                 : 4157031        (1165 /sec)
decisions                 : 11900396       (0.00 % random) (3334 /sec)
propagations              : 13521557611    (3787833 /sec)
conflict literals         : 152293374      (43.04 % deleted)

conflicts w/ DIP found    : 3439208        (82.73 % of conflicts)
conflicts w/ dangerous DIP: 1              (0.00 % of conflicts)
conflicts w/ DIP-learning : 14912          (0.36 % of conflicts)
decisions on ext vars     : 543281         (4.57 % of decisions)
total ext vars            : 4395        
tried delete ext vars     : 2           
deleted ext vars          : 2           
max ext vars              : 4393        

Memory used               : 268.00 MB
CPU time                  : 3569.73 s
DIP computation time      : 53.5258 s (1.50 % of total time)
ER_sel time               : 4.37822 s
ER_add time               : 0.02341 s
ER_delC time              : 0 s
ER_delV time              : 0.000837 s
ER_sub time               : 6.2901 s
ER_stat time              : 0 s

INDETERMINATE
